p cnf 718 2091 
-1  2 0 
-3  2 0 
 1  3 -2 0 
 1 -4 0 
 3 -4 0 
-1 -3  4 0 
-5  6 0 
-7  6 0 
 5  7 -6 0 
 5 -8 0 
 7 -8 0 
-5 -7  8 0 
-2  9 0 
-8  9 0 
 2  8 -9 0 
 2 -10 0 
 8 -10 0 
-2 -8  10 0 
-4  11 0 
-6  11 0 
 4  6 -11 0 
 4 -12 0 
 6 -12 0 
-4 -6  12 0 
-9  13 0 
-11  13 0 
 9  11 -13 0 
 9 -14 0 
 11 -14 0 
-9 -11  14 0 
-12  15 0 
-10  15 0 
 12  10 -15 0 
 12 -16 0 
 10 -16 0 
-12 -10  16 0 
-17  18 0 
-19  18 0 
 17  19 -18 0 
 17 -20 0 
 19 -20 0 
-17 -19  20 0 
-21  22 0 
-23  22 0 
 21  23 -22 0 
 21 -24 0 
 23 -24 0 
-21 -23  24 0 
-18  25 0 
-24  25 0 
 18  24 -25 0 
 18 -26 0 
 24 -26 0 
-18 -24  26 0 
-20  27 0 
-22  27 0 
 20  22 -27 0 
 20 -28 0 
 22 -28 0 
-20 -22  28 0 
-25  29 0 
-27  29 0 
 25  27 -29 0 
 25 -30 0 
 27 -30 0 
-25 -27  30 0 
-28  31 0 
-26  31 0 
 28  26 -31 0 
 28 -32 0 
 26 -32 0 
-28 -26  32 0 
-13  33 0 
-32  33 0 
 13  32 -33 0 
 13 -34 0 
 32 -34 0 
-13 -32  34 0 
-14  35 0 
-31  35 0 
 14  31 -35 0 
 14 -36 0 
 31 -36 0 
-14 -31  36 0 
-15  37 0 
-30  37 0 
 15  30 -37 0 
 15 -38 0 
 30 -38 0 
-15 -30  38 0 
-16  39 0 
-29  39 0 
 16  29 -39 0 
 16 -40 0 
 29 -40 0 
-16 -29  40 0 
-33  41 0 
-37  41 0 
 33  37 -41 0 
 33 -42 0 
 37 -42 0 
-33 -37  42 0 
-35  43 0 
-39  43 0 
 35  39 -43 0 
 35 -44 0 
 39 -44 0 
-35 -39  44 0 
-41  45 0 
-43  45 0 
 41  43 -45 0 
 41 -46 0 
 43 -46 0 
-41 -43  46 0 
-42  47 0 
-44  47 0 
 42  44 -47 0 
 42 -48 0 
 44 -48 0 
-42 -44  48 0 
-40  49 0 
-36  49 0 
 40  36 -49 0 
 40 -50 0 
 36 -50 0 
-40 -36  50 0 
-38  51 0 
-34  51 0 
 38  34 -51 0 
 38 -52 0 
 34 -52 0 
-38 -34  52 0 
-49  53 0 
-51  53 0 
 49  51 -53 0 
 49 -54 0 
 51 -54 0 
-49 -51  54 0 
-50  55 0 
-52  55 0 
 50  52 -55 0 
 50 -56 0 
 52 -56 0 
-50 -52  56 0 
-57  58 0 
-59  58 0 
 57  59 -58 0 
 57 -60 0 
 59 -60 0 
-57 -59  60 0 
-61  62 0 
-63  62 0 
 61  63 -62 0 
 61 -64 0 
 63 -64 0 
-61 -63  64 0 
-58  65 0 
-64  65 0 
 58  64 -65 0 
 58 -66 0 
 64 -66 0 
-58 -64  66 0 
-60  67 0 
-62  67 0 
 60  62 -67 0 
 60 -68 0 
 62 -68 0 
-60 -62  68 0 
-65  69 0 
-67  69 0 
 65  67 -69 0 
 65 -70 0 
 67 -70 0 
-65 -67  70 0 
-68  71 0 
-66  71 0 
 68  66 -71 0 
 68 -72 0 
 66 -72 0 
-68 -66  72 0 
-73  74 0 
-75  74 0 
 73  75 -74 0 
 73 -76 0 
 75 -76 0 
-73 -75  76 0 
-77  78 0 
-79  78 0 
 77  79 -78 0 
 77 -80 0 
 79 -80 0 
-77 -79  80 0 
-74  81 0 
-80  81 0 
 74  80 -81 0 
 74 -82 0 
 80 -82 0 
-74 -80  82 0 
-76  83 0 
-78  83 0 
 76  78 -83 0 
 76 -84 0 
 78 -84 0 
-76 -78  84 0 
-81  85 0 
-83  85 0 
 81  83 -85 0 
 81 -86 0 
 83 -86 0 
-81 -83  86 0 
-84  87 0 
-82  87 0 
 84  82 -87 0 
 84 -88 0 
 82 -88 0 
-84 -82  88 0 
-69  89 0 
-88  89 0 
 69  88 -89 0 
 69 -90 0 
 88 -90 0 
-69 -88  90 0 
-70  91 0 
-87  91 0 
 70  87 -91 0 
 70 -92 0 
 87 -92 0 
-70 -87  92 0 
-71  93 0 
-86  93 0 
 71  86 -93 0 
 71 -94 0 
 86 -94 0 
-71 -86  94 0 
-72  95 0 
-85  95 0 
 72  85 -95 0 
 72 -96 0 
 85 -96 0 
-72 -85  96 0 
-89  97 0 
-93  97 0 
 89  93 -97 0 
 89 -98 0 
 93 -98 0 
-89 -93  98 0 
-91  99 0 
-95  99 0 
 91  95 -99 0 
 91 -100 0 
 95 -100 0 
-91 -95  100 0 
-97  101 0 
-99  101 0 
 97  99 -101 0 
 97 -102 0 
 99 -102 0 
-97 -99  102 0 
-98  103 0 
-100  103 0 
 98  100 -103 0 
 98 -104 0 
 100 -104 0 
-98 -100  104 0 
-96  105 0 
-92  105 0 
 96  92 -105 0 
 96 -106 0 
 92 -106 0 
-96 -92  106 0 
-94  107 0 
-90  107 0 
 94  90 -107 0 
 94 -108 0 
 90 -108 0 
-94 -90  108 0 
-105  109 0 
-107  109 0 
 105  107 -109 0 
 105 -110 0 
 107 -110 0 
-105 -107  110 0 
-106  111 0 
-108  111 0 
 106  108 -111 0 
 106 -112 0 
 108 -112 0 
-106 -108  112 0 
-45  113 0 
-112  113 0 
 45  112 -113 0 
 45 -114 0 
 112 -114 0 
-45 -112  114 0 
-46  115 0 
-111  115 0 
 46  111 -115 0 
 46 -116 0 
 111 -116 0 
-46 -111  116 0 
-47  117 0 
-110  117 0 
 47  110 -117 0 
 47 -118 0 
 110 -118 0 
-47 -110  118 0 
-48  119 0 
-109  119 0 
 48  109 -119 0 
 48 -120 0 
 109 -120 0 
-48 -109  120 0 
-53  121 0 
-104  121 0 
 53  104 -121 0 
 53 -122 0 
 104 -122 0 
-53 -104  122 0 
-54  123 0 
-103  123 0 
 54  103 -123 0 
 54 -124 0 
 103 -124 0 
-54 -103  124 0 
-55  125 0 
-102  125 0 
 55  102 -125 0 
 55 -126 0 
 102 -126 0 
-55 -102  126 0 
-56  127 0 
-101  127 0 
 56  101 -127 0 
 56 -128 0 
 101 -128 0 
-56 -101  128 0 
-113  129 0 
-121  129 0 
 113  121 -129 0 
 113 -130 0 
 121 -130 0 
-113 -121  130 0 
-115  131 0 
-123  131 0 
 115  123 -131 0 
 115 -132 0 
 123 -132 0 
-115 -123  132 0 
-117  133 0 
-125  133 0 
 117  125 -133 0 
 117 -134 0 
 125 -134 0 
-117 -125  134 0 
-119  135 0 
-127  135 0 
 119  127 -135 0 
 119 -136 0 
 127 -136 0 
-119 -127  136 0 
-129  137 0 
-133  137 0 
 129  133 -137 0 
 129 -138 0 
 133 -138 0 
-129 -133  138 0 
-131  139 0 
-135  139 0 
 131  135 -139 0 
 131 -140 0 
 135 -140 0 
-131 -135  140 0 
-137  141 0 
-139  141 0 
 137  139 -141 0 
 137 -142 0 
 139 -142 0 
-137 -139  142 0 
-138  143 0 
-140  143 0 
 138  140 -143 0 
 138 -144 0 
 140 -144 0 
-138 -140  144 0 
-130  145 0 
-134  145 0 
 130  134 -145 0 
 130 -146 0 
 134 -146 0 
-130 -134  146 0 
-132  147 0 
-136  147 0 
 132  136 -147 0 
 132 -148 0 
 136 -148 0 
-132 -136  148 0 
-145  149 0 
-147  149 0 
 145  147 -149 0 
 145 -150 0 
 147 -150 0 
-145 -147  150 0 
-146  151 0 
-148  151 0 
 146  148 -151 0 
 146 -152 0 
 148 -152 0 
-146 -148  152 0 
-128  153 0 
-120  153 0 
 128  120 -153 0 
 128 -154 0 
 120 -154 0 
-128 -120  154 0 
-126  155 0 
-118  155 0 
 126  118 -155 0 
 126 -156 0 
 118 -156 0 
-126 -118  156 0 
-124  157 0 
-116  157 0 
 124  116 -157 0 
 124 -158 0 
 116 -158 0 
-124 -116  158 0 
-122  159 0 
-114  159 0 
 122  114 -159 0 
 122 -160 0 
 114 -160 0 
-122 -114  160 0 
-153  161 0 
-157  161 0 
 153  157 -161 0 
 153 -162 0 
 157 -162 0 
-153 -157  162 0 
-155  163 0 
-159  163 0 
 155  159 -163 0 
 155 -164 0 
 159 -164 0 
-155 -159  164 0 
-161  165 0 
-163  165 0 
 161  163 -165 0 
 161 -166 0 
 163 -166 0 
-161 -163  166 0 
-162  167 0 
-164  167 0 
 162  164 -167 0 
 162 -168 0 
 164 -168 0 
-162 -164  168 0 
-154  169 0 
-158  169 0 
 154  158 -169 0 
 154 -170 0 
 158 -170 0 
-154 -158  170 0 
-156  171 0 
-160  171 0 
 156  160 -171 0 
 156 -172 0 
 160 -172 0 
-156 -160  172 0 
-169  173 0 
-171  173 0 
 169  171 -173 0 
 169 -174 0 
 171 -174 0 
-169 -171  174 0 
-170  175 0 
-172  175 0 
 170  172 -175 0 
 170 -176 0 
 172 -176 0 
-170 -172  176 0 
-177  178 0 
-179  178 0 
 177  179 -178 0 
 177 -180 0 
 179 -180 0 
-177 -179  180 0 
-181  182 0 
-183  182 0 
 181  183 -182 0 
 181 -184 0 
 183 -184 0 
-181 -183  184 0 
-178  185 0 
-184  185 0 
 178  184 -185 0 
 178 -186 0 
 184 -186 0 
-178 -184  186 0 
-180  187 0 
-182  187 0 
 180  182 -187 0 
 180 -188 0 
 182 -188 0 
-180 -182  188 0 
-185  189 0 
-187  189 0 
 185  187 -189 0 
 185 -190 0 
 187 -190 0 
-185 -187  190 0 
-188  191 0 
-186  191 0 
 188  186 -191 0 
 188 -192 0 
 186 -192 0 
-188 -186  192 0 
-193  194 0 
-195  194 0 
 193  195 -194 0 
 193 -196 0 
 195 -196 0 
-193 -195  196 0 
-197  198 0 
-199  198 0 
 197  199 -198 0 
 197 -200 0 
 199 -200 0 
-197 -199  200 0 
-194  201 0 
-200  201 0 
 194  200 -201 0 
 194 -202 0 
 200 -202 0 
-194 -200  202 0 
-196  203 0 
-198  203 0 
 196  198 -203 0 
 196 -204 0 
 198 -204 0 
-196 -198  204 0 
-201  205 0 
-203  205 0 
 201  203 -205 0 
 201 -206 0 
 203 -206 0 
-201 -203  206 0 
-204  207 0 
-202  207 0 
 204  202 -207 0 
 204 -208 0 
 202 -208 0 
-204 -202  208 0 
-189  209 0 
-208  209 0 
 189  208 -209 0 
 189 -210 0 
 208 -210 0 
-189 -208  210 0 
-190  211 0 
-207  211 0 
 190  207 -211 0 
 190 -212 0 
 207 -212 0 
-190 -207  212 0 
-191  213 0 
-206  213 0 
 191  206 -213 0 
 191 -214 0 
 206 -214 0 
-191 -206  214 0 
-192  215 0 
-205  215 0 
 192  205 -215 0 
 192 -216 0 
 205 -216 0 
-192 -205  216 0 
-209  217 0 
-213  217 0 
 209  213 -217 0 
 209 -218 0 
 213 -218 0 
-209 -213  218 0 
-211  219 0 
-215  219 0 
 211  215 -219 0 
 211 -220 0 
 215 -220 0 
-211 -215  220 0 
-217  221 0 
-219  221 0 
 217  219 -221 0 
 217 -222 0 
 219 -222 0 
-217 -219  222 0 
-218  223 0 
-220  223 0 
 218  220 -223 0 
 218 -224 0 
 220 -224 0 
-218 -220  224 0 
-216  225 0 
-212  225 0 
 216  212 -225 0 
 216 -226 0 
 212 -226 0 
-216 -212  226 0 
-214  227 0 
-210  227 0 
 214  210 -227 0 
 214 -228 0 
 210 -228 0 
-214 -210  228 0 
-225  229 0 
-227  229 0 
 225  227 -229 0 
 225 -230 0 
 227 -230 0 
-225 -227  230 0 
-226  231 0 
-228  231 0 
 226  228 -231 0 
 226 -232 0 
 228 -232 0 
-226 -228  232 0 
-233  234 0 
-235  234 0 
 233  235 -234 0 
 233 -236 0 
 235 -236 0 
-233 -235  236 0 
-237  238 0 
-239  238 0 
 237  239 -238 0 
 237 -240 0 
 239 -240 0 
-237 -239  240 0 
-234  241 0 
-240  241 0 
 234  240 -241 0 
 234 -242 0 
 240 -242 0 
-234 -240  242 0 
-236  243 0 
-238  243 0 
 236  238 -243 0 
 236 -244 0 
 238 -244 0 
-236 -238  244 0 
-241  245 0 
-243  245 0 
 241  243 -245 0 
 241 -246 0 
 243 -246 0 
-241 -243  246 0 
-244  247 0 
-242  247 0 
 244  242 -247 0 
 244 -248 0 
 242 -248 0 
-244 -242  248 0 
-249  250 0 
-251  250 0 
 249  251 -250 0 
 249 -252 0 
 251 -252 0 
-249 -251  252 0 
-253  254 0 
-255  254 0 
 253  255 -254 0 
 253 -256 0 
 255 -256 0 
-253 -255  256 0 
-250  257 0 
-256  257 0 
 250  256 -257 0 
 250 -258 0 
 256 -258 0 
-250 -256  258 0 
-252  259 0 
-254  259 0 
 252  254 -259 0 
 252 -260 0 
 254 -260 0 
-252 -254  260 0 
-257  261 0 
-259  261 0 
 257  259 -261 0 
 257 -262 0 
 259 -262 0 
-257 -259  262 0 
-260  263 0 
-258  263 0 
 260  258 -263 0 
 260 -264 0 
 258 -264 0 
-260 -258  264 0 
-245  265 0 
-264  265 0 
 245  264 -265 0 
 245 -266 0 
 264 -266 0 
-245 -264  266 0 
-246  267 0 
-263  267 0 
 246  263 -267 0 
 246 -268 0 
 263 -268 0 
-246 -263  268 0 
-247  269 0 
-262  269 0 
 247  262 -269 0 
 247 -270 0 
 262 -270 0 
-247 -262  270 0 
-248  271 0 
-261  271 0 
 248  261 -271 0 
 248 -272 0 
 261 -272 0 
-248 -261  272 0 
-265  273 0 
-269  273 0 
 265  269 -273 0 
 265 -274 0 
 269 -274 0 
-265 -269  274 0 
-267  275 0 
-271  275 0 
 267  271 -275 0 
 267 -276 0 
 271 -276 0 
-267 -271  276 0 
-273  277 0 
-275  277 0 
 273  275 -277 0 
 273 -278 0 
 275 -278 0 
-273 -275  278 0 
-274  279 0 
-276  279 0 
 274  276 -279 0 
 274 -280 0 
 276 -280 0 
-274 -276  280 0 
-272  281 0 
-268  281 0 
 272  268 -281 0 
 272 -282 0 
 268 -282 0 
-272 -268  282 0 
-270  283 0 
-266  283 0 
 270  266 -283 0 
 270 -284 0 
 266 -284 0 
-270 -266  284 0 
-281  285 0 
-283  285 0 
 281  283 -285 0 
 281 -286 0 
 283 -286 0 
-281 -283  286 0 
-282  287 0 
-284  287 0 
 282  284 -287 0 
 282 -288 0 
 284 -288 0 
-282 -284  288 0 
-221  289 0 
-288  289 0 
 221  288 -289 0 
 221 -290 0 
 288 -290 0 
-221 -288  290 0 
-222  291 0 
-287  291 0 
 222  287 -291 0 
 222 -292 0 
 287 -292 0 
-222 -287  292 0 
-223  293 0 
-286  293 0 
 223  286 -293 0 
 223 -294 0 
 286 -294 0 
-223 -286  294 0 
-224  295 0 
-285  295 0 
 224  285 -295 0 
 224 -296 0 
 285 -296 0 
-224 -285  296 0 
-229  297 0 
-280  297 0 
 229  280 -297 0 
 229 -298 0 
 280 -298 0 
-229 -280  298 0 
-230  299 0 
-279  299 0 
 230  279 -299 0 
 230 -300 0 
 279 -300 0 
-230 -279  300 0 
-231  301 0 
-278  301 0 
 231  278 -301 0 
 231 -302 0 
 278 -302 0 
-231 -278  302 0 
-232  303 0 
-277  303 0 
 232  277 -303 0 
 232 -304 0 
 277 -304 0 
-232 -277  304 0 
-289  305 0 
-297  305 0 
 289  297 -305 0 
 289 -306 0 
 297 -306 0 
-289 -297  306 0 
-291  307 0 
-299  307 0 
 291  299 -307 0 
 291 -308 0 
 299 -308 0 
-291 -299  308 0 
-293  309 0 
-301  309 0 
 293  301 -309 0 
 293 -310 0 
 301 -310 0 
-293 -301  310 0 
-295  311 0 
-303  311 0 
 295  303 -311 0 
 295 -312 0 
 303 -312 0 
-295 -303  312 0 
-305  313 0 
-309  313 0 
 305  309 -313 0 
 305 -314 0 
 309 -314 0 
-305 -309  314 0 
-307  315 0 
-311  315 0 
 307  311 -315 0 
 307 -316 0 
 311 -316 0 
-307 -311  316 0 
-313  317 0 
-315  317 0 
 313  315 -317 0 
 313 -318 0 
 315 -318 0 
-313 -315  318 0 
-314  319 0 
-316  319 0 
 314  316 -319 0 
 314 -320 0 
 316 -320 0 
-314 -316  320 0 
-306  321 0 
-310  321 0 
 306  310 -321 0 
 306 -322 0 
 310 -322 0 
-306 -310  322 0 
-308  323 0 
-312  323 0 
 308  312 -323 0 
 308 -324 0 
 312 -324 0 
-308 -312  324 0 
-321  325 0 
-323  325 0 
 321  323 -325 0 
 321 -326 0 
 323 -326 0 
-321 -323  326 0 
-322  327 0 
-324  327 0 
 322  324 -327 0 
 322 -328 0 
 324 -328 0 
-322 -324  328 0 
-304  329 0 
-296  329 0 
 304  296 -329 0 
 304 -330 0 
 296 -330 0 
-304 -296  330 0 
-302  331 0 
-294  331 0 
 302  294 -331 0 
 302 -332 0 
 294 -332 0 
-302 -294  332 0 
-300  333 0 
-292  333 0 
 300  292 -333 0 
 300 -334 0 
 292 -334 0 
-300 -292  334 0 
-298  335 0 
-290  335 0 
 298  290 -335 0 
 298 -336 0 
 290 -336 0 
-298 -290  336 0 
-329  337 0 
-333  337 0 
 329  333 -337 0 
 329 -338 0 
 333 -338 0 
-329 -333  338 0 
-331  339 0 
-335  339 0 
 331  335 -339 0 
 331 -340 0 
 335 -340 0 
-331 -335  340 0 
-337  341 0 
-339  341 0 
 337  339 -341 0 
 337 -342 0 
 339 -342 0 
-337 -339  342 0 
-338  343 0 
-340  343 0 
 338  340 -343 0 
 338 -344 0 
 340 -344 0 
-338 -340  344 0 
-330  345 0 
-334  345 0 
 330  334 -345 0 
 330 -346 0 
 334 -346 0 
-330 -334  346 0 
-332  347 0 
-336  347 0 
 332  336 -347 0 
 332 -348 0 
 336 -348 0 
-332 -336  348 0 
-345  349 0 
-347  349 0 
 345  347 -349 0 
 345 -350 0 
 347 -350 0 
-345 -347  350 0 
-346  351 0 
-348  351 0 
 346  348 -351 0 
 346 -352 0 
 348 -352 0 
-346 -348  352 0 
-141  353 0 
-352  353 0 
 141  352 -353 0 
-141 -352 0 
-142  354 0 
-351  354 0 
 142  351 -354 0 
-142 -351 0 
-143  355 0 
-350  355 0 
 143  350 -355 0 
-143 -350 0 
-144  356 0 
-349  356 0 
 144  349 -356 0 
-144 -349 0 
-149  357 0 
-344  357 0 
 149  344 -357 0 
-149 -344 0 
-150  358 0 
-343  358 0 
 150  343 -358 0 
-150 -343 0 
-151  359 0 
-342  359 0 
 151  342 -359 0 
-151 -342 0 
-152  360 0 
-341  360 0 
 152  341 -360 0 
-152 -341 0 
-165  361 0 
-328  361 0 
 165  328 -361 0 
-165 -328 0 
-166  362 0 
-327  362 0 
 166  327 -362 0 
-166 -327 0 
-167  363 0 
-326  363 0 
 167  326 -363 0 
-167 -326 0 
-168  364 0 
-325  364 0 
 168  325 -364 0 
-168 -325 0 
-173  365 0 
-320  365 0 
 173  320 -365 0 
-173 -320 0 
-174  366 0 
-319  366 0 
 174  319 -366 0 
-174 -319 0 
-175  367 0 
-318  367 0 
 175  318 -367 0 
-175 -318 0 
-176  368 0 
-317  368 0 
 176  317 -368 0 
-176 -317 0 
-353 -361 0 
-354 -362 0 
-355 -363 0 
-356 -364 0 
-357 -365 0 
-358 -366 0 
-359 -367 0 
-360 -368 0 
-1  369 0 
-3  369 0 
 1  3 -369 0 
 1 -370 0 
 3 -370 0 
-1 -3  370 0 
-5  371 0 
-7  371 0 
 5  7 -371 0 
 5 -372 0 
 7 -372 0 
-5 -7  372 0 
-369  373 0 
-372  373 0 
 369  372 -373 0 
 369 -374 0 
 372 -374 0 
-369 -372  374 0 
-370  375 0 
-371  375 0 
 370  371 -375 0 
 370 -376 0 
 371 -376 0 
-370 -371  376 0 
-373  377 0 
-375  377 0 
 373  375 -377 0 
 373 -378 0 
 375 -378 0 
-373 -375  378 0 
-376  379 0 
-374  379 0 
 376  374 -379 0 
 376 -380 0 
 374 -380 0 
-376 -374  380 0 
-17  381 0 
-19  381 0 
 17  19 -381 0 
 17 -382 0 
 19 -382 0 
-17 -19  382 0 
-21  383 0 
-23  383 0 
 21  23 -383 0 
 21 -384 0 
 23 -384 0 
-21 -23  384 0 
-381  385 0 
-384  385 0 
 381  384 -385 0 
 381 -386 0 
 384 -386 0 
-381 -384  386 0 
-382  387 0 
-383  387 0 
 382  383 -387 0 
 382 -388 0 
 383 -388 0 
-382 -383  388 0 
-385  389 0 
-387  389 0 
 385  387 -389 0 
 385 -390 0 
 387 -390 0 
-385 -387  390 0 
-388  391 0 
-386  391 0 
 388  386 -391 0 
 388 -392 0 
 386 -392 0 
-388 -386  392 0 
-377  393 0 
-392  393 0 
 377  392 -393 0 
 377 -394 0 
 392 -394 0 
-377 -392  394 0 
-378  395 0 
-391  395 0 
 378  391 -395 0 
 378 -396 0 
 391 -396 0 
-378 -391  396 0 
-379  397 0 
-390  397 0 
 379  390 -397 0 
 379 -398 0 
 390 -398 0 
-379 -390  398 0 
-380  399 0 
-389  399 0 
 380  389 -399 0 
 380 -400 0 
 389 -400 0 
-380 -389  400 0 
-393  401 0 
-397  401 0 
 393  397 -401 0 
 393 -402 0 
 397 -402 0 
-393 -397  402 0 
-395  403 0 
-399  403 0 
 395  399 -403 0 
 395 -404 0 
 399 -404 0 
-395 -399  404 0 
-401  405 0 
-403  405 0 
 401  403 -405 0 
 401 -406 0 
 403 -406 0 
-401 -403  406 0 
-402  407 0 
-404  407 0 
 402  404 -407 0 
 402 -408 0 
 404 -408 0 
-402 -404  408 0 
-400  409 0 
-396  409 0 
 400  396 -409 0 
 400 -410 0 
 396 -410 0 
-400 -396  410 0 
-398  411 0 
-394  411 0 
 398  394 -411 0 
 398 -412 0 
 394 -412 0 
-398 -394  412 0 
-409  413 0 
-411  413 0 
 409  411 -413 0 
 409 -414 0 
 411 -414 0 
-409 -411  414 0 
-410  415 0 
-412  415 0 
 410  412 -415 0 
 410 -416 0 
 412 -416 0 
-410 -412  416 0 
-57  417 0 
-59  417 0 
 57  59 -417 0 
 57 -418 0 
 59 -418 0 
-57 -59  418 0 
-61  419 0 
-63  419 0 
 61  63 -419 0 
 61 -420 0 
 63 -420 0 
-61 -63  420 0 
-417  421 0 
-420  421 0 
 417  420 -421 0 
 417 -422 0 
 420 -422 0 
-417 -420  422 0 
-418  423 0 
-419  423 0 
 418  419 -423 0 
 418 -424 0 
 419 -424 0 
-418 -419  424 0 
-421  425 0 
-423  425 0 
 421  423 -425 0 
 421 -426 0 
 423 -426 0 
-421 -423  426 0 
-424  427 0 
-422  427 0 
 424  422 -427 0 
 424 -428 0 
 422 -428 0 
-424 -422  428 0 
-73  429 0 
-75  429 0 
 73  75 -429 0 
 73 -430 0 
 75 -430 0 
-73 -75  430 0 
-77  431 0 
-79  431 0 
 77  79 -431 0 
 77 -432 0 
 79 -432 0 
-77 -79  432 0 
-429  433 0 
-432  433 0 
 429  432 -433 0 
 429 -434 0 
 432 -434 0 
-429 -432  434 0 
-430  435 0 
-431  435 0 
 430  431 -435 0 
 430 -436 0 
 431 -436 0 
-430 -431  436 0 
-433  437 0 
-435  437 0 
 433  435 -437 0 
 433 -438 0 
 435 -438 0 
-433 -435  438 0 
-436  439 0 
-434  439 0 
 436  434 -439 0 
 436 -440 0 
 434 -440 0 
-436 -434  440 0 
-425  441 0 
-440  441 0 
 425  440 -441 0 
 425 -442 0 
 440 -442 0 
-425 -440  442 0 
-426  443 0 
-439  443 0 
 426  439 -443 0 
 426 -444 0 
 439 -444 0 
-426 -439  444 0 
-427  445 0 
-438  445 0 
 427  438 -445 0 
 427 -446 0 
 438 -446 0 
-427 -438  446 0 
-428  447 0 
-437  447 0 
 428  437 -447 0 
 428 -448 0 
 437 -448 0 
-428 -437  448 0 
-441  449 0 
-445  449 0 
 441  445 -449 0 
 441 -450 0 
 445 -450 0 
-441 -445  450 0 
-443  451 0 
-447  451 0 
 443  447 -451 0 
 443 -452 0 
 447 -452 0 
-443 -447  452 0 
-449  453 0 
-451  453 0 
 449  451 -453 0 
 449 -454 0 
 451 -454 0 
-449 -451  454 0 
-450  455 0 
-452  455 0 
 450  452 -455 0 
 450 -456 0 
 452 -456 0 
-450 -452  456 0 
-448  457 0 
-444  457 0 
 448  444 -457 0 
 448 -458 0 
 444 -458 0 
-448 -444  458 0 
-446  459 0 
-442  459 0 
 446  442 -459 0 
 446 -460 0 
 442 -460 0 
-446 -442  460 0 
-457  461 0 
-459  461 0 
 457  459 -461 0 
 457 -462 0 
 459 -462 0 
-457 -459  462 0 
-458  463 0 
-460  463 0 
 458  460 -463 0 
 458 -464 0 
 460 -464 0 
-458 -460  464 0 
-405  465 0 
-464  465 0 
 405  464 -465 0 
 405 -466 0 
 464 -466 0 
-405 -464  466 0 
-406  467 0 
-463  467 0 
 406  463 -467 0 
 406 -468 0 
 463 -468 0 
-406 -463  468 0 
-407  469 0 
-462  469 0 
 407  462 -469 0 
 407 -470 0 
 462 -470 0 
-407 -462  470 0 
-408  471 0 
-461  471 0 
 408  461 -471 0 
 408 -472 0 
 461 -472 0 
-408 -461  472 0 
-413  473 0 
-456  473 0 
 413  456 -473 0 
 413 -474 0 
 456 -474 0 
-413 -456  474 0 
-414  475 0 
-455  475 0 
 414  455 -475 0 
 414 -476 0 
 455 -476 0 
-414 -455  476 0 
-415  477 0 
-454  477 0 
 415  454 -477 0 
 415 -478 0 
 454 -478 0 
-415 -454  478 0 
-416  479 0 
-453  479 0 
 416  453 -479 0 
 416 -480 0 
 453 -480 0 
-416 -453  480 0 
-465  481 0 
-473  481 0 
 465  473 -481 0 
 465 -482 0 
 473 -482 0 
-465 -473  482 0 
-467  483 0 
-475  483 0 
 467  475 -483 0 
 467 -484 0 
 475 -484 0 
-467 -475  484 0 
-469  485 0 
-477  485 0 
 469  477 -485 0 
 469 -486 0 
 477 -486 0 
-469 -477  486 0 
-471  487 0 
-479  487 0 
 471  479 -487 0 
 471 -488 0 
 479 -488 0 
-471 -479  488 0 
-481  489 0 
-485  489 0 
 481  485 -489 0 
 481 -490 0 
 485 -490 0 
-481 -485  490 0 
-483  491 0 
-487  491 0 
 483  487 -491 0 
 483 -492 0 
 487 -492 0 
-483 -487  492 0 
-489  493 0 
-491  493 0 
 489  491 -493 0 
 489 -494 0 
 491 -494 0 
-489 -491  494 0 
-490  495 0 
-492  495 0 
 490  492 -495 0 
 490 -496 0 
 492 -496 0 
-490 -492  496 0 
-482  497 0 
-486  497 0 
 482  486 -497 0 
 482 -498 0 
 486 -498 0 
-482 -486  498 0 
-484  499 0 
-488  499 0 
 484  488 -499 0 
 484 -500 0 
 488 -500 0 
-484 -488  500 0 
-497  501 0 
-499  501 0 
 497  499 -501 0 
 497 -502 0 
 499 -502 0 
-497 -499  502 0 
-498  503 0 
-500  503 0 
 498  500 -503 0 
 498 -504 0 
 500 -504 0 
-498 -500  504 0 
-480  505 0 
-472  505 0 
 480  472 -505 0 
 480 -506 0 
 472 -506 0 
-480 -472  506 0 
-478  507 0 
-470  507 0 
 478  470 -507 0 
 478 -508 0 
 470 -508 0 
-478 -470  508 0 
-476  509 0 
-468  509 0 
 476  468 -509 0 
 476 -510 0 
 468 -510 0 
-476 -468  510 0 
-474  511 0 
-466  511 0 
 474  466 -511 0 
 474 -512 0 
 466 -512 0 
-474 -466  512 0 
-505  513 0 
-509  513 0 
 505  509 -513 0 
 505 -514 0 
 509 -514 0 
-505 -509  514 0 
-507  515 0 
-511  515 0 
 507  511 -515 0 
 507 -516 0 
 511 -516 0 
-507 -511  516 0 
-513  517 0 
-515  517 0 
 513  515 -517 0 
 513 -518 0 
 515 -518 0 
-513 -515  518 0 
-514  519 0 
-516  519 0 
 514  516 -519 0 
 514 -520 0 
 516 -520 0 
-514 -516  520 0 
-506  521 0 
-510  521 0 
 506  510 -521 0 
 506 -522 0 
 510 -522 0 
-506 -510  522 0 
-508  523 0 
-512  523 0 
 508  512 -523 0 
 508 -524 0 
 512 -524 0 
-508 -512  524 0 
-521  525 0 
-523  525 0 
 521  523 -525 0 
 521 -526 0 
 523 -526 0 
-521 -523  526 0 
-522  527 0 
-524  527 0 
 522  524 -527 0 
 522 -528 0 
 524 -528 0 
-522 -524  528 0 
-177  529 0 
-179  529 0 
 177  179 -529 0 
 177 -530 0 
 179 -530 0 
-177 -179  530 0 
-181  531 0 
-183  531 0 
 181  183 -531 0 
 181 -532 0 
 183 -532 0 
-181 -183  532 0 
-529  533 0 
-532  533 0 
 529  532 -533 0 
 529 -534 0 
 532 -534 0 
-529 -532  534 0 
-530  535 0 
-531  535 0 
 530  531 -535 0 
 530 -536 0 
 531 -536 0 
-530 -531  536 0 
-533  537 0 
-535  537 0 
 533  535 -537 0 
 533 -538 0 
 535 -538 0 
-533 -535  538 0 
-536  539 0 
-534  539 0 
 536  534 -539 0 
 536 -540 0 
 534 -540 0 
-536 -534  540 0 
-193  541 0 
-195  541 0 
 193  195 -541 0 
 193 -542 0 
 195 -542 0 
-193 -195  542 0 
-197  543 0 
-199  543 0 
 197  199 -543 0 
 197 -544 0 
 199 -544 0 
-197 -199  544 0 
-541  545 0 
-544  545 0 
 541  544 -545 0 
 541 -546 0 
 544 -546 0 
-541 -544  546 0 
-542  547 0 
-543  547 0 
 542  543 -547 0 
 542 -548 0 
 543 -548 0 
-542 -543  548 0 
-545  549 0 
-547  549 0 
 545  547 -549 0 
 545 -550 0 
 547 -550 0 
-545 -547  550 0 
-548  551 0 
-546  551 0 
 548  546 -551 0 
 548 -552 0 
 546 -552 0 
-548 -546  552 0 
-537  553 0 
-552  553 0 
 537  552 -553 0 
 537 -554 0 
 552 -554 0 
-537 -552  554 0 
-538  555 0 
-551  555 0 
 538  551 -555 0 
 538 -556 0 
 551 -556 0 
-538 -551  556 0 
-539  557 0 
-550  557 0 
 539  550 -557 0 
 539 -558 0 
 550 -558 0 
-539 -550  558 0 
-540  559 0 
-549  559 0 
 540  549 -559 0 
 540 -560 0 
 549 -560 0 
-540 -549  560 0 
-553  561 0 
-557  561 0 
 553  557 -561 0 
 553 -562 0 
 557 -562 0 
-553 -557  562 0 
-555  563 0 
-559  563 0 
 555  559 -563 0 
 555 -564 0 
 559 -564 0 
-555 -559  564 0 
-561  565 0 
-563  565 0 
 561  563 -565 0 
 561 -566 0 
 563 -566 0 
-561 -563  566 0 
-562  567 0 
-564  567 0 
 562  564 -567 0 
 562 -568 0 
 564 -568 0 
-562 -564  568 0 
-560  569 0 
-556  569 0 
 560  556 -569 0 
 560 -570 0 
 556 -570 0 
-560 -556  570 0 
-558  571 0 
-554  571 0 
 558  554 -571 0 
 558 -572 0 
 554 -572 0 
-558 -554  572 0 
-569  573 0 
-571  573 0 
 569  571 -573 0 
 569 -574 0 
 571 -574 0 
-569 -571  574 0 
-570  575 0 
-572  575 0 
 570  572 -575 0 
 570 -576 0 
 572 -576 0 
-570 -572  576 0 
-233  577 0 
-235  577 0 
 233  235 -577 0 
 233 -578 0 
 235 -578 0 
-233 -235  578 0 
-237  579 0 
-239  579 0 
 237  239 -579 0 
 237 -580 0 
 239 -580 0 
-237 -239  580 0 
-577  581 0 
-580  581 0 
 577  580 -581 0 
 577 -582 0 
 580 -582 0 
-577 -580  582 0 
-578  583 0 
-579  583 0 
 578  579 -583 0 
 578 -584 0 
 579 -584 0 
-578 -579  584 0 
-581  585 0 
-583  585 0 
 581  583 -585 0 
 581 -586 0 
 583 -586 0 
-581 -583  586 0 
-584  587 0 
-582  587 0 
 584  582 -587 0 
 584 -588 0 
 582 -588 0 
-584 -582  588 0 
-249  589 0 
-251  589 0 
 249  251 -589 0 
 249 -590 0 
 251 -590 0 
-249 -251  590 0 
-253  591 0 
-255  591 0 
 253  255 -591 0 
 253 -592 0 
 255 -592 0 
-253 -255  592 0 
-589  593 0 
-592  593 0 
 589  592 -593 0 
 589 -594 0 
 592 -594 0 
-589 -592  594 0 
-590  595 0 
-591  595 0 
 590  591 -595 0 
 590 -596 0 
 591 -596 0 
-590 -591  596 0 
-593  597 0 
-595  597 0 
 593  595 -597 0 
 593 -598 0 
 595 -598 0 
-593 -595  598 0 
-596  599 0 
-594  599 0 
 596  594 -599 0 
 596 -600 0 
 594 -600 0 
-596 -594  600 0 
-585  601 0 
-600  601 0 
 585  600 -601 0 
 585 -602 0 
 600 -602 0 
-585 -600  602 0 
-586  603 0 
-599  603 0 
 586  599 -603 0 
 586 -604 0 
 599 -604 0 
-586 -599  604 0 
-587  605 0 
-598  605 0 
 587  598 -605 0 
 587 -606 0 
 598 -606 0 
-587 -598  606 0 
-588  607 0 
-597  607 0 
 588  597 -607 0 
 588 -608 0 
 597 -608 0 
-588 -597  608 0 
-601  609 0 
-605  609 0 
 601  605 -609 0 
 601 -610 0 
 605 -610 0 
-601 -605  610 0 
-603  611 0 
-607  611 0 
 603  607 -611 0 
 603 -612 0 
 607 -612 0 
-603 -607  612 0 
-609  613 0 
-611  613 0 
 609  611 -613 0 
 609 -614 0 
 611 -614 0 
-609 -611  614 0 
-610  615 0 
-612  615 0 
 610  612 -615 0 
 610 -616 0 
 612 -616 0 
-610 -612  616 0 
-608  617 0 
-604  617 0 
 608  604 -617 0 
 608 -618 0 
 604 -618 0 
-608 -604  618 0 
-606  619 0 
-602  619 0 
 606  602 -619 0 
 606 -620 0 
 602 -620 0 
-606 -602  620 0 
-617  621 0 
-619  621 0 
 617  619 -621 0 
 617 -622 0 
 619 -622 0 
-617 -619  622 0 
-618  623 0 
-620  623 0 
 618  620 -623 0 
 618 -624 0 
 620 -624 0 
-618 -620  624 0 
-565  625 0 
-624  625 0 
 565  624 -625 0 
 565 -626 0 
 624 -626 0 
-565 -624  626 0 
-566  627 0 
-623  627 0 
 566  623 -627 0 
 566 -628 0 
 623 -628 0 
-566 -623  628 0 
-567  629 0 
-622  629 0 
 567  622 -629 0 
 567 -630 0 
 622 -630 0 
-567 -622  630 0 
-568  631 0 
-621  631 0 
 568  621 -631 0 
 568 -632 0 
 621 -632 0 
-568 -621  632 0 
-573  633 0 
-616  633 0 
 573  616 -633 0 
 573 -634 0 
 616 -634 0 
-573 -616  634 0 
-574  635 0 
-615  635 0 
 574  615 -635 0 
 574 -636 0 
 615 -636 0 
-574 -615  636 0 
-575  637 0 
-614  637 0 
 575  614 -637 0 
 575 -638 0 
 614 -638 0 
-575 -614  638 0 
-576  639 0 
-613  639 0 
 576  613 -639 0 
 576 -640 0 
 613 -640 0 
-576 -613  640 0 
-625  641 0 
-633  641 0 
 625  633 -641 0 
 625 -642 0 
 633 -642 0 
-625 -633  642 0 
-627  643 0 
-635  643 0 
 627  635 -643 0 
 627 -644 0 
 635 -644 0 
-627 -635  644 0 
-629  645 0 
-637  645 0 
 629  637 -645 0 
 629 -646 0 
 637 -646 0 
-629 -637  646 0 
-631  647 0 
-639  647 0 
 631  639 -647 0 
 631 -648 0 
 639 -648 0 
-631 -639  648 0 
-641  649 0 
-645  649 0 
 641  645 -649 0 
 641 -650 0 
 645 -650 0 
-641 -645  650 0 
-643  651 0 
-647  651 0 
 643  647 -651 0 
 643 -652 0 
 647 -652 0 
-643 -647  652 0 
-649  653 0 
-651  653 0 
 649  651 -653 0 
 649 -654 0 
 651 -654 0 
-649 -651  654 0 
-650  655 0 
-652  655 0 
 650  652 -655 0 
 650 -656 0 
 652 -656 0 
-650 -652  656 0 
-642  657 0 
-646  657 0 
 642  646 -657 0 
 642 -658 0 
 646 -658 0 
-642 -646  658 0 
-644  659 0 
-648  659 0 
 644  648 -659 0 
 644 -660 0 
 648 -660 0 
-644 -648  660 0 
-657  661 0 
-659  661 0 
 657  659 -661 0 
 657 -662 0 
 659 -662 0 
-657 -659  662 0 
-658  663 0 
-660  663 0 
 658  660 -663 0 
 658 -664 0 
 660 -664 0 
-658 -660  664 0 
-640  665 0 
-632  665 0 
 640  632 -665 0 
 640 -666 0 
 632 -666 0 
-640 -632  666 0 
-638  667 0 
-630  667 0 
 638  630 -667 0 
 638 -668 0 
 630 -668 0 
-638 -630  668 0 
-636  669 0 
-628  669 0 
 636  628 -669 0 
 636 -670 0 
 628 -670 0 
-636 -628  670 0 
-634  671 0 
-626  671 0 
 634  626 -671 0 
 634 -672 0 
 626 -672 0 
-634 -626  672 0 
-665  673 0 
-669  673 0 
 665  669 -673 0 
 665 -674 0 
 669 -674 0 
-665 -669  674 0 
-667  675 0 
-671  675 0 
 667  671 -675 0 
 667 -676 0 
 671 -676 0 
-667 -671  676 0 
-673  677 0 
-675  677 0 
 673  675 -677 0 
 673 -678 0 
 675 -678 0 
-673 -675  678 0 
-674  679 0 
-676  679 0 
 674  676 -679 0 
 674 -680 0 
 676 -680 0 
-674 -676  680 0 
-666  681 0 
-670  681 0 
 666  670 -681 0 
 666 -682 0 
 670 -682 0 
-666 -670  682 0 
-668  683 0 
-672  683 0 
 668  672 -683 0 
 668 -684 0 
 672 -684 0 
-668 -672  684 0 
-681  685 0 
-683  685 0 
 681  683 -685 0 
 681 -686 0 
 683 -686 0 
-681 -683  686 0 
-682  687 0 
-684  687 0 
 682  684 -687 0 
 682 -688 0 
 684 -688 0 
-682 -684  688 0 
-493  689 0 
-688  689 0 
 493  688 -689 0 
-494  690 0 
-687  690 0 
 494  687 -690 0 
-495  691 0 
-686  691 0 
 495  686 -691 0 
-496  692 0 
-685  692 0 
 496  685 -692 0 
-501  693 0 
-680  693 0 
 501  680 -693 0 
-502  694 0 
-679  694 0 
 502  679 -694 0 
-503  695 0 
-678  695 0 
 503  678 -695 0 
-504  696 0 
-677  696 0 
 504  677 -696 0 
-517  697 0 
-664  697 0 
 517  664 -697 0 
-518  698 0 
-663  698 0 
 518  663 -698 0 
-519  699 0 
-662  699 0 
 519  662 -699 0 
-520  700 0 
-661  700 0 
 520  661 -700 0 
-525  701 0 
-656  701 0 
 525  656 -701 0 
-526  702 0 
-655  702 0 
 526  655 -702 0 
-527  703 0 
-654  703 0 
 527  654 -703 0 
-528  704 0 
-653  704 0 
 528  653 -704 0 
 689  697 0 
 689 -705 0 
 697 -705 0 
-689 -697  705 0 
 690  698 0 
 690 -706 0 
 698 -706 0 
-690 -698  706 0 
 691  699 0 
 691 -707 0 
 699 -707 0 
-691 -699  707 0 
 692  700 0 
 692 -708 0 
 700 -708 0 
-692 -700  708 0 
 693  701 0 
 693 -709 0 
 701 -709 0 
-693 -701  709 0 
 694  702 0 
 694 -710 0 
 702 -710 0 
-694 -702  710 0 
 695  703 0 
 695 -711 0 
 703 -711 0 
-695 -703  711 0 
 696  704 0 
 696 -712 0 
 704 -712 0 
-696 -704  712 0 
-705  713 0 
-709  713 0 
 705  709 -713 0 
-706  714 0 
-710  714 0 
 706  710 -714 0 
-707  715 0 
-711  715 0 
 707  711 -715 0 
-708  716 0 
-712  716 0 
 708  712 -716 0 
-713  717 0 
-715  717 0 
 713  715 -717 0 
-714  718 0 
-716  718 0 
 714  716 -718 0 
 717  718 0 
